
Gurobi 9.0.2 (win64) logging started Sun Dec 27 06:11:43 2020

Changed value of parameter logfile to result\SunCable-20201227T0415\scenario_2030_p0_cab4000.log
   Prev:   Default: 
Gurobi Optimizer version 9.0.2 build v9.0.2rc0 (win64)
Optimize a model with 1243974 rows, 762167 columns and 3491691 nonzeros
Model fingerprint: 0x9c7c9cc7
Coefficient statistics:
  Matrix range     [1e-07, 4e+05]
  Objective range  [1e+00, 1e+00]
  Bounds range     [0e+00, 0e+00]
  RHS range        [2e-05, 3e+08]
Warning: Model contains large matrix coefficient range
         Consider reformulating model or setting NumericFocus parameter
         to avoid numerical issues.

Concurrent LP optimizer: primal simplex, dual simplex, and barrier
Showing barrier log only...

Presolve removed 1068997 rows and 595935 columns
Presolve time: 2.71s
Presolved: 174977 rows, 280098 columns, 652320 nonzeros

Ordering time: 0.08s

Barrier statistics:
 Dense cols : 5
 AA' NZ     : 6.422e+05
 Factor NZ  : 3.150e+06 (roughly 200 MBytes of memory)
 Factor Ops : 7.040e+07 (less than 1 second per iteration)
 Threads    : 30

                  Objective                Residual
Iter       Primal          Dual         Primal    Dual     Compl     Time
   0  -2.53635490e+16 -1.07293805e+15  7.40e+06 2.54e+04  3.04e+12     3s
   1  -5.47928656e+15 -1.08612710e+15  1.59e+06 4.56e+06  8.56e+11     3s
   2  -1.76568292e+15 -1.02454184e+15  5.15e+05 8.53e+05  2.47e+11     4s
   3  -3.45567081e+14 -8.99232124e+14  1.02e+05 1.35e+05  4.94e+10     4s
   4  -7.78371324e+13 -5.53467808e+14  2.21e+04 3.71e+04  1.18e+10     4s
   5  -2.42315498e+13 -3.72915204e+14  7.04e+03 1.83e+04  4.52e+09     5s
   6  -7.25668398e+12 -2.70282571e+14  2.30e+03 9.76e+03  1.97e+09     5s
   7  -2.32788267e+12 -1.02682781e+14  8.57e+02 8.48e+02  4.49e+08     5s
   8   4.78958660e+11 -2.65148157e+13  2.08e+01 4.50e+01  5.36e+07     5s
   9   2.85910119e+11 -1.55225745e+12  1.36e+00 1.37e+00  3.42e+06     5s
  10   1.12286176e+11 -6.44071490e+11  3.54e-01 1.53e-01  1.37e+06     6s
  11   2.99110582e+10 -1.32487876e+11  5.32e-02 5.59e-09  2.89e+05     6s
  12   1.83489378e+10 -5.67314145e+10  2.71e-02 5.59e-09  1.33e+05     6s
  13   1.15407227e+10 -1.54321175e+10  6.91e-03 7.45e-09  4.77e+04     7s
  14   9.17063535e+09 -1.96544357e+09  2.84e-03 5.59e-09  1.97e+04     7s
  15   8.39007534e+09  1.50742914e+09  1.45e-03 5.59e-09  1.21e+04     7s
  16   7.86364106e+09  3.94915327e+09  5.86e-04 3.73e-09  6.90e+03     7s
  17   7.68962223e+09  4.94539426e+09  3.20e-04 3.73e-09  4.83e+03     7s
  18   7.59099861e+09  5.60501242e+09  1.75e-04 2.79e-09  3.49e+03     8s
  19   7.55625332e+09  5.87923135e+09  1.26e-04 2.79e-09  2.95e+03     8s
  20   7.51850083e+09  6.08586618e+09  7.53e-05 2.79e-09  2.52e+03     8s
  21   7.49007157e+09  6.29552501e+09  4.39e-05 2.79e-09  2.10e+03     8s
  22   7.46744206e+09  6.84679979e+09  2.19e-05 1.86e-09  1.09e+03     9s
  23   7.46226036e+09  6.93747071e+09  1.77e-05 1.86e-09  9.23e+02     9s
  24   7.45986784e+09  7.00920773e+09  1.57e-05 2.79e-09  7.93e+02     9s
  25   7.45755452e+09  7.04052109e+09  1.38e-05 2.79e-09  7.33e+02    10s
  26   7.45627348e+09  7.07228951e+09  1.28e-05 2.79e-09  6.75e+02    10s
  27   7.45336256e+09  7.12963883e+09  1.07e-05 2.79e-09  5.69e+02    10s
  28   7.45057882e+09  7.14991741e+09  8.77e-06 2.79e-09  5.29e+02    10s
  29   7.44386450e+09  7.20744370e+09  3.84e-06 1.86e-09  4.16e+02    11s
  30   7.44095709e+09  7.23869635e+09  1.42e-06 2.79e-09  3.56e+02    11s
  31   7.43951715e+09  7.32265025e+09  8.43e-07 1.86e-09  2.06e+02    11s
  32   7.43785435e+09  7.34664885e+09  2.32e-07 1.86e-09  1.60e+02    12s
  33   7.43773875e+09  7.35487098e+09  2.12e-07 1.86e-09  1.46e+02    12s
  34   7.43757155e+09  7.37869603e+09  1.72e-07 1.86e-09  1.04e+02    12s
  35   7.43740698e+09  7.38087358e+09  1.47e-07 1.86e-09  9.94e+01    12s
  36   7.43704745e+09  7.39953844e+09  7.14e-08 1.86e-09  6.60e+01    13s
  37   7.43682482e+09  7.42090410e+09  3.87e-08 1.86e-09  2.80e+01    13s
  38   7.43660250e+09  7.42502539e+09  4.43e-08 1.86e-09  2.04e+01    13s
  39   7.43651851e+09  7.42767816e+09  1.23e-07 1.86e-09  1.55e+01    14s
  40   7.43649960e+09  7.42904468e+09  1.11e-07 1.86e-09  1.31e+01    14s
  41   7.43644593e+09  7.43058387e+09  6.71e-08 1.86e-09  1.03e+01    14s
  42   7.43643348e+09  7.43351391e+09  5.24e-08 1.86e-09  5.13e+00    14s
  43   7.43642024e+09  7.43547914e+09  6.32e-08 1.86e-09  1.65e+00    14s
  44   7.43640888e+09  7.43568434e+09  6.38e-08 1.86e-09  1.27e+00    15s
  45   7.43640572e+09  7.43592157e+09  5.19e-08 1.86e-09  8.51e-01    15s
  46   7.43640451e+09  7.43601461e+09  2.62e-08 1.86e-09  6.86e-01    15s
  47   7.43640437e+09  7.43604331e+09  3.72e-08 2.79e-09  6.35e-01    15s
  48   7.43639998e+09  7.43615329e+09  2.53e-07 1.86e-09  4.34e-01    16s
  49   7.43639980e+09  7.43638838e+09  1.99e-07 2.37e-08  2.01e-02    16s
  50   7.43639754e+09  7.43639170e+09  1.45e-09 1.50e-08  1.03e-02    16s

Barrier solved model in 50 iterations and 16.33 seconds
Optimal objective 7.43639754e+09

Crossover log...

   12215 DPushes remaining with DInf 0.0000000e+00                17s
       0 DPushes remaining with DInf 0.0000000e+00                19s
Warning: Markowitz tolerance tightened to 0.5

  133325 PPushes remaining with PInf 5.1216853e-01                19s
   58164 PPushes remaining with PInf 4.4684355e-01                23s
       0 PPushes remaining with PInf 0.0000000e+00                24s

  Push phase complete: Pinf 0.0000000e+00, Dinf 1.4435179e+04     24s

Iteration    Objective       Primal Inf.    Dual Inf.      Time
  145412    7.4363975e+09   0.000000e+00   1.443518e+04     24s
  145457    7.4363975e+09   0.000000e+00   0.000000e+00     26s

Solved with barrier
Solved in 145457 iterations and 26.31 seconds
Optimal objective  7.436397458e+09
Warning: unscaled primal violation = 0.000891488 and residual = 0.000891488
